(set-logic QF_SLIA)
(set-option :produce-models true)
(declare-const X String)
; ([a-zA-Z0-9._-]+@[a-zA-Z0-9._-]+\.[a-zA-Z0-9._-]+)
(assert (str.in_re X (re.++ (str.to_re "\u{0a}") (re.+ (re.union (re.range "a" "z") (re.range "A" "Z") (re.range "0" "9") (str.to_re ".") (str.to_re "_") (str.to_re "-"))) (str.to_re "@") (re.+ (re.union (re.range "a" "z") (re.range "A" "Z") (re.range "0" "9") (str.to_re ".") (str.to_re "_") (str.to_re "-"))) (str.to_re ".") (re.+ (re.union (re.range "a" "z") (re.range "A" "Z") (re.range "0" "9") (str.to_re ".") (str.to_re "_") (str.to_re "-"))))))
; ^((CN=['\w\d\s\-\&]+,)+(OU=['\w\d\s\-\&]+,)*(DC=['\w\d\s\-\&]+[,]*){2,})$
(assert (str.in_re X (re.++ (str.to_re "\u{0a}") (re.+ (re.++ (str.to_re "CN=") (re.+ (re.union (str.to_re "'") (re.range "0" "9") (str.to_re "-") (str.to_re "&") (re.range "0" "9") (re.range "A" "Z") (re.range "a" "z") (str.to_re "_") (str.to_re " ") (str.to_re "\u{09}") (str.to_re "\u{0a}") (str.to_re "\u{0c}") (str.to_re "\u{0d}"))) (str.to_re ","))) (re.* (re.++ (str.to_re "OU=") (re.+ (re.union (str.to_re "'") (re.range "0" "9") (str.to_re "-") (str.to_re "&") (re.range "0" "9") (re.range "A" "Z") (re.range "a" "z") (str.to_re "_") (str.to_re " ") (str.to_re "\u{09}") (str.to_re "\u{0a}") (str.to_re "\u{0c}") (str.to_re "\u{0d}"))) (str.to_re ","))) ((_ re.loop 2 2) (re.++ (str.to_re "DC=") (re.+ (re.union (str.to_re "'") (re.range "0" "9") (str.to_re "-") (str.to_re "&") (re.range "0" "9") (re.range "A" "Z") (re.range "a" "z") (str.to_re "_") (str.to_re " ") (str.to_re "\u{09}") (str.to_re "\u{0a}") (str.to_re "\u{0c}") (str.to_re "\u{0d}"))) (re.* (str.to_re ",")))) (re.* (re.++ (str.to_re "DC=") (re.+ (re.union (str.to_re "'") (re.range "0" "9") (str.to_re "-") (str.to_re "&") (re.range "0" "9") (re.range "A" "Z") (re.range "a" "z") (str.to_re "_") (str.to_re " ") (str.to_re "\u{09}") (str.to_re "\u{0a}") (str.to_re "\u{0c}") (str.to_re "\u{0d}"))) (re.* (str.to_re ",")))))))
; /^User\u{2d}Agent\u{3a}\s*[^\n]*Safari[^\n]*\r\n/smi
(assert (str.in_re X (re.++ (str.to_re "/User-Agent:") (re.* (re.union (str.to_re " ") (str.to_re "\u{09}") (str.to_re "\u{0a}") (str.to_re "\u{0c}") (str.to_re "\u{0d}"))) (re.* (re.comp (str.to_re "\u{0a}"))) (str.to_re "Safari") (re.* (re.comp (str.to_re "\u{0a}"))) (str.to_re "\u{0d}\u{0a}/smi\u{0a}"))))
; /^\/([a-zA-Z0-9-&+ ]+[^\/?]=){5}/Ui
(assert (not (str.in_re X (re.++ (str.to_re "//") ((_ re.loop 5 5) (re.++ (re.+ (re.union (re.range "a" "z") (re.range "A" "Z") (re.range "0" "9") (str.to_re "-") (str.to_re "&") (str.to_re "+") (str.to_re " "))) (re.union (str.to_re "/") (str.to_re "?")) (str.to_re "="))) (str.to_re "/Ui\u{0a}")))))
(assert (> (str.len X) 10))
(check-sat)
